num_features = 78;
num_usage_limits = 5;
num_plans = 5;
num_addons = 5;

features = ["multiLanguageSupport","wrikeForWindowsAndMac","wrikeIOSAndAndroidApps","brandedWorkspace","storageAccount","storageSpace","taskManagement","subtaskManagement","folderHierachy","accountWideWorkSchedules","personalWorkSchedules","customFieldsWorkflows&Statuses","projectPortfolioManagement","emailIntegration&Notifications","customWorkViews","calendars","dynamicGanttChart","dashboards","realTimeReports","analyticsView","chartView","tableauIntegration","businessIntelligenceAPI","advancedAnalytics&DataVisualizations","smarthSearch","voiceAssistantInteraction","smartRepliesAndQuickReactions","documentProcessingAndTextRecognition","generativeAI","aiRecommendedTasks","aiSubitemCreation","aiProjectRiskPrediction","useCaseProjectTemplates","automations","teamSpecificAdministration","requestForms","dynamicRequestForms","companyWideAdministration","customTemplatesAndBlueprints","customItemTypes","taskAndProjectApproval","customApprovalFlows","resourcesView","workloadCharts","effortAllocation","resourceAssigment","timeTracking","timeSheets","jobRoles","budgeting","resourceBookings","teamUtilizationAndPerformanceDashboard","collaborators","guestApprovals","fileProofingAndApproval","advancedProfingInHTML5AndSharepoint","extensionForAdobeCreativeCloud","digitalAssetManagementIntegration","cloudContentConnector","openRESTfulAPI","cloudStoragePlatforms","productivityAppsAndTools","salesForceIntegration","netSuiteAndQuickBookIntegrations","adobeCreativeCloudExtension","powerBIIntegration","enterpriseGradeSecurity","authenticationViaGSuite","folderAndProjectPermissions","userAuditReports","singleSignOn","twoStepVerification","controlledAdminPermission","networkAccess","passwordPolicySettings","advancedUserAccessControls","customizableUserTypes","lockedSpaces"];
usage_limits = ["minNumberOfUsers","maxNumberOfUsers","useStorageAccount","useStorage","useAutomations"];
plans = ["FREE","TEAM","BUSINESS","ENTERPRISE","PINNACLE"];
addons = ["additional500GBStorage","additional1TBStorage","wrikeIntegrate","wrikeSync","wrikeLock"];

plans_prices = [0,9.8,24.8,248,2480];
addons_prices = [100,100,100,100,100];

linked_features = array2d(USAGE_LIMITS, FEATURES, [
    % minNumberOfUsers
    0,0,0,0,0,0,0,0,0,0,0,0,0,0,0,0,0,0,0,0,0,0,0,0,0,0,0,0,0,0,0,0,0,0,0,0,0,0,0,0,0,0,0,0,0,0,0,0,0,0,0,0,0,0,0,0,0,0,0,0,0,0,0,0,0,0,0,0,0,0,0,0,0,0,0,0,0,0,
    % maxNumberOfUsers
    0,0,0,0,0,0,0,0,0,0,0,0,0,0,0,0,0,0,0,0,0,0,0,0,0,0,0,0,0,0,0,0,0,0,0,0,0,0,0,0,0,0,0,0,0,0,0,0,0,0,0,0,0,0,0,0,0,0,0,0,0,0,0,0,0,0,0,0,0,0,0,0,0,0,0,0,0,0,
    % useStorageAccount
    0,0,0,0,1,0,0,0,0,0,0,0,0,0,0,0,0,0,0,0,0,0,0,0,0,0,0,0,0,0,0,0,0,0,0,0,0,0,0,0,0,0,0,0,0,0,0,0,0,0,0,0,0,0,0,0,0,0,0,0,0,0,0,0,0,0,0,0,0,0,0,0,0,0,0,0,0,0,
    % useStorage
    0,0,0,0,0,1,0,0,0,0,0,0,0,0,0,0,0,0,0,0,0,0,0,0,0,0,0,0,0,0,0,0,0,0,0,0,0,0,0,0,0,0,0,0,0,0,0,0,0,0,0,0,0,0,0,0,0,0,0,0,0,0,0,0,0,0,0,0,0,0,0,0,0,0,0,0,0,0,
    % useAutomations
    0,0,0,0,0,0,0,0,0,0,0,0,0,0,0,0,0,0,0,0,0,0,0,0,0,0,0,0,0,0,0,0,0,1,0,0,0,0,0,0,0,0,0,0,0,0,0,0,0,0,0,0,0,0,0,0,0,0,0,0,0,0,0,0,0,0,0,0,0,0,0,0,0,0,0,0,0,0
]);

plans_features = array2d(PLANS, FEATURES, [
    % FREE
    1,1,1,0,1,0,1,1,1,1,0,0,0,1,1,0,0,0,0,0,0,0,0,0,1,1,1,1,1,1,1,0,1,0,0,0,0,0,0,0,0,0,0,0,0,0,0,0,0,0,0,0,1,0,0,0,0,0,0,1,1,0,0,0,0,0,1,1,0,0,0,0,0,0,0,0,0,0,
    % TEAM
    1,1,1,0,1,1,1,1,0,1,1,1,0,1,1,1,1,1,0,1,1,0,0,0,1,1,1,1,1,1,1,0,1,1,1,1,0,0,0,0,0,0,0,0,0,0,0,0,0,0,0,0,1,0,0,0,0,0,0,1,1,1,0,0,0,0,1,1,0,0,0,0,0,0,0,0,0,0,
    % BUSINESS
    1,1,1,1,1,1,1,1,1,1,1,1,1,1,1,1,1,1,1,0,0,0,0,0,1,1,1,1,1,1,1,1,1,1,1,1,1,1,1,1,1,1,1,1,1,1,1,1,0,0,0,0,1,1,1,0,1,1,1,1,1,1,1,1,1,0,1,1,1,0,0,0,0,0,0,0,0,0,
    % ENTERPRISE
    1,1,1,1,1,1,1,1,1,1,1,1,1,1,1,1,1,1,1,1,1,1,1,0,1,1,1,1,1,1,1,1,1,1,1,1,1,1,1,1,1,1,1,1,1,1,1,1,0,0,0,0,1,1,1,0,1,1,1,1,1,1,1,1,1,0,1,1,1,1,1,1,1,1,1,1,1,0,
    % PINNACLE
    1,1,1,1,1,1,1,1,1,1,1,1,1,1,1,1,1,1,1,1,1,1,1,1,1,1,1,1,1,1,1,1,1,1,1,1,1,1,1,1,1,1,1,1,1,1,1,1,1,1,1,1,1,1,1,1,1,1,1,1,1,1,1,1,1,1,1,1,1,1,1,1,1,1,1,1,1,1
]);
plans_usage_limits = array2d(PLANS, USAGE_LIMITS, [
    % FREE
    1,10000000000,2,2,50,
    % TEAM
    3,25,2,2,50,
    % BUSINESS
    5,200,2,5,200,
    % ENTERPRISE
    5,10000000000,2,10,1000,
    % PINNACLE
    5,10000000000,2,15,1500
]);

addons_features = array2d(ADDONS, FEATURES, [
    % additional500GBStorage
    0,0,0,0,0,0,0,0,0,0,0,0,0,0,0,0,0,0,0,0,0,0,0,0,0,0,0,0,0,0,0,0,0,0,0,0,0,0,0,0,0,0,0,0,0,0,0,0,0,0,0,0,0,0,0,0,0,0,0,0,0,0,0,0,0,0,0,0,0,0,0,0,0,0,0,0,0,0,
    % additional1TBStorage
    0,0,0,0,0,0,0,0,0,0,0,0,0,0,0,0,0,0,0,0,0,0,0,0,0,0,0,0,0,0,0,0,0,0,0,0,0,0,0,0,0,0,0,0,0,0,0,0,0,0,0,0,0,0,0,0,0,0,0,0,0,0,0,0,0,0,0,0,0,0,0,0,0,0,0,0,0,0,
    % wrikeIntegrate
    0,0,0,0,0,0,0,0,0,0,0,0,0,0,0,0,0,0,0,0,0,0,0,0,0,0,0,0,0,0,0,0,0,0,0,0,0,0,0,0,0,0,0,0,0,0,0,0,0,0,0,0,0,0,0,0,0,0,0,0,0,0,0,0,0,0,0,0,0,0,0,0,0,0,0,0,0,0,
    % wrikeSync
    0,0,0,0,0,0,0,0,0,0,0,0,0,0,0,0,0,0,0,0,0,0,0,0,0,0,0,0,0,0,0,0,0,0,0,0,0,0,0,0,0,0,0,0,0,0,0,0,0,0,0,0,0,0,0,0,0,0,0,0,0,0,0,0,0,0,0,0,0,0,0,0,0,0,0,0,0,0,
    % wrikeLock
    0,0,0,0,0,0,0,0,0,0,0,0,0,0,0,0,0,0,0,0,0,0,0,0,0,0,0,0,0,0,0,0,0,0,0,0,0,0,0,0,0,0,0,0,0,0,0,0,0,0,0,0,0,0,0,0,0,0,0,0,0,0,0,0,0,0,0,0,0,0,0,0,0,0,0,0,0,0
]);
addons_usage_limits = array2d(ADDONS, USAGE_LIMITS, [
    % additional500GBStorage
    0,0,0,0,0,
    % additional1TBStorage
    0,0,0,0,0,
    % wrikeIntegrate
    0,0,0,0,0,
    % wrikeSync
    0,0,0,0,0,
    % wrikeLock
    0,0,0,0,0
]);
addons_usage_limits_extensions = array2d(ADDONS, USAGE_LIMITS, [
    % additional500GBStorage
    0,0,0,500,0,
    % additional1TBStorage
    0,0,0,1000,0,
    % wrikeIntegrate
    0,0,0,0,0,
    % wrikeSync
    0,0,0,0,0,
    % wrikeLock
    0,0,0,0,0
]);
addons_available_for = array2d(ADDONS, PLANS, [
    % additional500GBStorage
    0,1,1,1,1,
    % additional1TBStorage
    0,1,1,1,1,
    % wrikeIntegrate
    0,0,1,1,1,
    % wrikeSync
    0,0,1,1,1,
    % wrikeLock
    0,0,0,1,1
]);
addons_depends_on = array2d(ADDONS, ADDONS, [
    % additional500GBStorage
    0,0,0,0,0,
    % additional1TBStorage
    0,0,0,0,0,
    % wrikeIntegrate
    0,0,0,0,0,
    % wrikeSync
    0,0,0,0,0,
    % wrikeLock
    0,0,0,0,0
]);
